160426.82,54.37,67.42
168444.23,51.78,64.22
172072.99,50.69,62.86
159450.61,54.7,67.84
167888.01,51.95,64.43
174080.41,50.11,62.14
172709.11,50.5,62.63
166814.1,52.29,64.84
162048.65,53.83,66.75
184008.39,47.4,58.78
180334.53,48.37,59.98
170136.04,51.27,63.58
173933.36,50.15,62.19
169268.44,51.53,63.9
165342.73,52.75,65.42
167763.99,51.99,64.48
192960.75,45.2,56.06
178856.31,48.77,60.48
170433.12,51.18,63.47
158785.49,54.93,68.12
